17
200 200
1 33 132 29 137 35 86 41 12 21 84
2 64 41 11 31 17 54 25 34 56 67
3 103 32 75 22 36 81 19 44 123 86
4 59 9 22 107 70 88 115 22 30 17
5 44 38 63 132 42 117 25 51 26 61
6 123 29 44 9 5 32 16 22 51 44
7 57 62 31 27 12 42 71 22 25 42
8 32 8 55 18 25 15 44 109 79 32
9 25 26 28 74 11 55 41 29 19 66
10 53 39 58 58 40 10 90 87 36 82
11 15 81 80 16 26 78 35 137 43 34
12 17 18 70 14 44 29 31 68 66 27
13 42 63 38 36 77 40 129 44 36 8
14 9 50 24 27 86 49 36 15 23 19
15 44 91 39 68 79 64 17 29 13 64
16 90 68 99 22 9 30 19 54 62 48
17 66 41 161 41 121 34 146 25 89 45